c Random 5-CNF over 30 variables and 180 clauses
c Generated with `cnfgen`
c (C) 2012-2016 Massimo Lauria <lauria.massimo@gmail.com>
c https://massimolauria.github.io/cnfgen
c
c COMMAND LINE: cnfgen --output tmp-5-30-180.dimacs --output-format dimacs randkcnf 5 30 180
c
c sdimacs generated by gen-sdimacs
c
p cnf 30 180
e 16 17 18 19 20 21 22 23 24 25 26 27 28 29 30 0
r 0.37 1 2 3 4 5 6 7 8 9 10 11 12 13 14 15 0
3 5 -9 20 -23 0
2 10 -25 -29 30 0
12 -15 -18 25 -27 0
-10 -14 -16 -24 -25 0
5 7 9 24 25 0
-5 11 15 19 22 0
11 14 19 -22 30 0
1 -3 6 14 -28 0
2 -10 -21 -22 23 0
6 -11 -12 -17 -24 0
8 9 11 -13 14 0
-8 9 -17 22 23 0
-10 22 26 29 30 0
3 -7 -10 16 25 0
-5 -17 19 21 -22 0
-9 12 20 -22 -23 0
3 -17 18 -23 28 0
2 -4 -5 -7 -14 0
9 -14 17 -18 25 0
2 -10 13 -14 21 0
6 7 -13 16 -17 0
-11 13 -20 -22 24 0
1 4 -21 26 27 0
-21 22 -23 29 30 0
-3 -20 -23 -25 -28 0
-12 18 -19 20 21 0
2 -5 -14 16 -24 0
-6 20 21 23 -24 0
7 8 -17 -26 -27 0
14 -19 23 25 30 0
-1 -5 12 16 -29 0
1 2 17 -26 -27 0
9 -13 18 -22 27 0
-3 5 -9 -16 -21 0
4 16 -19 -27 -29 0
-11 -13 17 19 30 0
-5 -10 12 -15 23 0
7 -9 -13 15 25 0
13 16 20 -25 -28 0
-3 -6 -19 22 29 0
-5 6 9 15 -16 0
1 4 -17 27 -29 0
3 -12 14 -27 -28 0
10 12 23 -28 29 0
-6 -8 12 17 -23 0
4 -8 -10 23 29 0
-5 9 -15 -25 -30 0
-3 4 -16 -19 21 0
-3 5 7 19 24 0
-2 9 16 29 30 0
-5 10 -23 27 29 0
4 -5 -9 15 -24 0
7 11 -12 -18 -20 0
6 -7 14 24 27 0
1 3 7 8 -18 0
1 7 21 23 28 0
4 -6 8 -13 17 0
8 -10 14 20 28 0
-20 26 28 -29 -30 0
6 -8 -10 -28 -29 0
8 -10 17 24 -25 0
-1 6 -25 28 -29 0
-1 22 23 24 26 0
8 -11 15 22 23 0
4 10 15 17 28 0
-2 -10 16 20 25 0
-3 6 7 10 12 0
-8 10 16 -18 -20 0
-10 -15 -21 -25 28 0
1 9 -26 -27 30 0
-7 9 18 20 21 0
7 -13 -14 18 -19 0
7 -9 -13 15 23 0
-11 20 21 24 29 0
-4 -13 -17 -25 -30 0
-4 -25 27 28 -30 0
1 -9 -13 15 -18 0
-11 -14 15 25 26 0
-10 14 -15 -18 -29 0
2 7 18 21 -30 0
-2 10 16 -17 20 0
3 8 22 26 -30 0
10 -16 -21 22 -30 0
-7 16 -17 18 25 0
8 9 -19 -24 -25 0
4 6 17 -20 25 0
-1 -8 -13 -21 -27 0
17 -18 20 -24 -25 0
-1 -2 -17 -27 28 0
-1 -4 20 29 -30 0
5 7 -17 -22 -28 0
-8 11 -14 -15 16 0
-6 -7 -15 -17 -21 0
-1 -6 -14 26 30 0
3 14 -16 21 27 0
-3 -6 -21 24 -27 0
-4 -5 -23 24 -29 0
-6 9 -16 20 -25 0
5 -11 -12 15 -24 0
13 -14 20 27 -30 0
8 9 -12 14 27 0
-2 5 -24 -28 30 0
-3 -15 -16 -23 27 0
-7 -11 -15 -23 29 0
-1 6 11 17 26 0
-8 -10 -20 22 27 0
4 7 9 12 -14 0
-2 -9 -21 24 -29 0
7 -9 14 -23 29 0
-8 -11 18 21 -24 0
-6 10 -14 20 25 0
-5 6 7 -11 24 0
1 13 -18 24 -27 0
5 -7 -19 -26 -30 0
5 6 8 10 16 0
14 -18 -22 -25 -28 0
1 -13 16 -18 20 0
1 -9 -11 16 28 0
-1 -7 8 12 -24 0
-2 -7 -18 22 25 0
4 6 -8 -24 27 0
-1 7 17 21 23 0
-8 -9 -17 -22 -30 0
2 -7 16 -25 30 0
-12 -13 17 -26 27 0
-6 17 -19 -29 30 0
-2 -14 -17 -24 30 0
-1 -4 10 23 30 0
1 2 -10 -11 16 0
-2 3 -10 -21 23 0
4 -13 22 -26 -27 0
1 2 4 -7 -28 0
-3 -11 -21 24 28 0
-5 -6 7 -16 19 0
-3 -6 7 -20 -23 0
-8 -9 14 17 -23 0
-4 -9 -15 -22 -27 0
-5 -9 -24 -25 29 0
-2 5 -8 11 22 0
9 -13 19 24 29 0
5 -10 14 -23 27 0
-5 -7 13 16 20 0
-7 8 -10 13 16 0
14 -23 24 -25 -28 0
-4 5 7 -9 28 0
-1 3 -5 10 -22 0
2 -12 -26 27 29 0
12 -20 -23 28 29 0
-11 12 16 21 30 0
3 -9 12 -18 28 0
4 -9 -18 -21 25 0
3 -4 9 -11 -14 0
4 -5 -6 -9 10 0
-8 -11 -17 -18 29 0
7 13 -15 18 -20 0
-1 5 -10 19 -27 0
-3 -6 -11 22 -28 0
4 13 -16 24 -25 0
-1 -3 -8 -17 24 0
-4 10 14 -18 -25 0
-3 16 -20 24 26 0
2 7 16 -20 -24 0
-1 -11 -15 18 22 0
4 -6 -8 14 16 0
8 16 17 -26 30 0
8 -11 16 -26 -28 0
3 -4 -15 23 25 0
6 -10 -17 -25 -27 0
4 -6 8 19 30 0
-3 8 18 27 28 0
10 -17 -18 19 -25 0
3 -4 -12 -17 24 0
-4 -20 -21 26 30 0
10 13 -21 -22 24 0
6 14 -17 28 -29 0
1 -6 -12 -19 29 0
-1 14 15 -16 -24 0
-1 -3 5 -8 26 0
4 5 9 -21 -24 0
1 -5 6 -11 -16 0
